20	2
10	8	
0	0	0	8	2	4	5	6	11	12	17	19	
6	4	3	3	7	16	3	
288	4	2	2	13	18	
1075	4	3	1	7	
13	4	2	1	7	
7	4	2	4	14	15	8	10	
991	4	3	2	9	16	
5	3	3	1	20	
6	4	3	1	16	
255	3	3	1	13	
1138	3	3	1	20	
18	4	3	1	20	
339	4	2	1	20	
388	3	3	1	20	
8	3	3	1	20	
11	4	2	1	20	
6	3	3	1	20	
388	4	2	1	20	
8	3	3	1	20	
0	0	0	0	